language Essence 1.3

letting class be function(1 --> 2, 2 --> 1, 3 --> 1, 4 --> 2, 5 --> 1, 6 --> 1, 7 --> 2)
letting deck_length be 79
letting deck_width be 77
letting length be function(1 --> 61, 2 --> 12, 3 --> 18, 4 --> 5, 5 --> 13, 6 --> 26, 7 --> 27)
letting n_classes be 2
letting n_containers be 7
letting separation be function()
letting width be function(1 --> 3, 2 --> 60, 3 --> 24, 4 --> 14, 5 --> 56, 6 --> 53, 7 --> 44)
